c description: tiling of 
c generator: CNFgen (0.9.0)
c copyright: (C) 2012-2020 Massimo Lauria <massimo.lauria@uniroma1.it>
c url: https://massimolauria.net/cnfgen
c
p cnf 10 48
-1 -3 0
-1 -9 0
-3 -9 0
1 3 9 0
-1 -5 0
-1 -6 0
-1 -8 0
-5 -6 0
-5 -8 0
-6 -8 0
1 5 6 8 0
-1 -5 0
-1 -9 0
-5 -9 0
1 5 9 0
2 0
-3 -4 0
-3 -8 0
-3 -9 0
-3 -10 0
-4 -8 0
-4 -9 0
-4 -10 0
-8 -9 0
-8 -10 0
-9 -10 0
3 4 8 9 10 0
-3 -4 0
-3 -8 0
-3 -10 0
-4 -8 0
-4 -10 0
-8 -10 0
3 4 8 10 0
-3 -4 0
-3 -10 0
-4 -10 0
3 4 10 0
-3 -5 0
-3 -8 0
-3 -10 0
-5 -8 0
-5 -10 0
-8 -10 0
3 5 8 10 0
-5 -6 0
5 6 0
7 0